(set-info :smt-lib-version 2.6)
(set-logic UF)
(set-info :source |
Generated by: Andrew Reynolds
Generated on: 2017-04-28
Generator: Sledgehammer, converted to v2.6 by CVC4
Application: Verfication goals in Isabelle
Target solver: CVC4, Z3
Publications: "A Decision Procedure for (Co)Datatypes" by Andrew Reynolds and Jasmin Blanchette, CADE 2015.
|)
(set-info :license "https://creativecommons.org/licenses/by/4.0/")
(set-info :category "industrial")
(set-info :status unsat)


(declare-sort A$ 0)
(declare-sort Nat$ 0)
(declare-sort Unit$ 0)
(declare-sort Nat_a_fun$ 0)
(declare-sort A_bool_fun$ 0)
(declare-sort Nibble_set$ 0)
(declare-sort Nat_nat_fun$ 0)
(declare-sort Bool_nat_fun$ 0)
(declare-sort Nat_bool_fun$ 0)
(declare-sort Unit_nat_fun$ 0)
(declare-sort Unit_bool_fun$ 0)
(declare-sort Nibble_bool_fun$ 0)
(declare-sort Natural_bool_fun$ 0)
(declare-sort Nibble_option_set$ 0)
(declare-sort Nat_nat_nat_fun_fun$ 0)
(declare-sort Natural_natural_fun$ 0)
(declare-sort Nibble_option_option_set$ 0)
(declare-sort Natural_natural_natural_fun_fun$ 0)
(declare-sort Nibble_option_option_option_set$ 0)
(declare-sort A_stream$ 0)
(declare-fun shd$ (A_stream$) A$)
(declare-fun stl$ (A_stream$) A_stream$)
(declare-fun sCons$ (A$ A_stream$) A_stream$)
(declare-sort Natural$ 0)
(declare-sort Nibble$ 0)
(declare-sort Char$ 0)
(declare-sort Typerep_list$ 0)
(declare-sort Char_list$ 0)
(declare-sort Literal$ 0)
(declare-sort Typerep$ 0)
(declare-fun nat_of_natural$ (Natural$) Nat$)
(declare-fun natural_of_nat$ (Nat$) Natural$)
(declare-fun nibble0$ () Nibble$)
(declare-fun nibble1$ () Nibble$)
(declare-fun nibble2$ () Nibble$)
(declare-fun nibble3$ () Nibble$)
(declare-fun nibble4$ () Nibble$)
(declare-fun nibble5$ () Nibble$)
(declare-fun nibble6$ () Nibble$)
(declare-fun nibble7$ () Nibble$)
(declare-fun nibble8$ () Nibble$)
(declare-fun nibble9$ () Nibble$)
(declare-fun nibbleA$ () Nibble$)
(declare-fun nibbleB$ () Nibble$)
(declare-fun nibbleC$ () Nibble$)
(declare-fun nibbleD$ () Nibble$)
(declare-fun nibbleE$ () Nibble$)
(declare-fun nibbleF$ () Nibble$)
(declare-fun select$ (Char$) Nibble$)
(declare-fun selecta$ (Char$) Nibble$)
(declare-fun char$ (Nibble$ Nibble$) Char$)
(declare-fun nil$ () Typerep_list$)
(declare-fun hd$ (Typerep_list$) Typerep$)
(declare-fun tl$ (Typerep_list$) Typerep_list$)
(declare-fun cons$ (Typerep$ Typerep_list$) Typerep_list$)
(declare-fun nil$a () Char_list$)
(declare-fun hd$a (Char_list$) Char$)
(declare-fun tl$a (Char_list$) Char_list$)
(declare-fun cons$a (Char$ Char_list$) Char_list$)
(declare-fun explode$ (Literal$) Char_list$)
(declare-fun str$ (Char_list$) Literal$)
(declare-fun selectb$ (Typerep$) Literal$)
(declare-fun selectc$ (Typerep$) Typerep_list$)
(declare-fun typerep$ (Literal$ Typerep_list$) Typerep$)
(declare-fun f$ () Nat_a_fun$)
(declare-fun uu$ (Nibble_set$) Nibble_bool_fun$)
(declare-fun bot$ () Nibble_set$)
(declare-fun one$ () Natural$)
(declare-fun suc$ (Natural$) Natural$)
(declare-fun top$ () Nibble_set$)
(declare-fun bot$a () Nibble_option_option_option_set$)
(declare-fun bot$b () Nibble_option_option_set$)
(declare-fun bot$c () Nibble_option_set$)
(declare-fun less$ (Nat$) Nat_bool_fun$)
(declare-fun one$a () Nat$)
(declare-fun size$ (Char$) Nat$)
(declare-fun snth$ (A_stream$) Nat_a_fun$)
(declare-fun zero$ () Nat$)
(declare-fun sdrop$ (Nat$ A_stream$) A_stream$)
(declare-fun size$a (Natural$) Nat$)
(declare-fun size$b () Bool_nat_fun$)
(declare-fun size$c (Typerep$) Nat$)
(declare-fun size$d (Literal$) Nat$)
(declare-fun size$e (Nibble$) Nat$)
(declare-fun size$f () Unit_nat_fun$)
(declare-fun these$ (Nibble_option_option_option_set$) Nibble_option_option_set$)
(declare-fun times$ () Nat_nat_nat_fun_fun$)
(declare-fun unity$ () Unit$)
(declare-fun zero$a () Natural$)
(declare-fun insert$ (Nibble$ Nibble_set$) Nibble_set$)
(declare-fun member$ (Nibble$ Nibble_set$) Bool)
(declare-fun monoid$ (Natural_natural_natural_fun_fun$) Natural_bool_fun$)
(declare-fun of_seq$ (Nat_a_fun$) A_stream$)
(declare-fun these$a (Nibble_option_option_set$) Nibble_option_set$)
(declare-fun these$b (Nibble_option_set$) Nibble_set$)
(declare-fun times$a () Natural_natural_natural_fun_fun$)
(declare-fun uminus$ (Unit$) Unit$)
(declare-fun collect$ (Nibble_bool_fun$) Nibble_set$)
(declare-fun default$ () Unit$)
(declare-fun fun_app$ (Nibble_bool_fun$ Nibble$) Bool)
(declare-fun less_eq$ (Nat$) Nat_bool_fun$)
(declare-fun monoid$a (Nat_nat_nat_fun_fun$) Nat_bool_fun$)
(declare-fun of_bool$ (Bool) Nat$)
(declare-fun fun_app$a (Nat_a_fun$ Nat$) A$)
(declare-fun fun_app$b (Bool_nat_fun$ Bool) Nat$)
(declare-fun fun_app$c (Unit_nat_fun$ Unit$) Nat$)
(declare-fun fun_app$d (Unit_bool_fun$ Unit$) Bool)
(declare-fun fun_app$e (A_bool_fun$ A$) Bool)
(declare-fun fun_app$f (Nat_bool_fun$ Nat$) Bool)
(declare-fun fun_app$g (Natural_bool_fun$ Natural$) Bool)
(declare-fun fun_app$h (Nat_nat_fun$ Nat$) Nat$)
(declare-fun fun_app$i (Nat_nat_nat_fun_fun$ Nat$) Nat_nat_fun$)
(declare-fun fun_app$j (Natural_natural_fun$ Natural$) Natural$)
(declare-fun fun_app$k (Natural_natural_natural_fun_fun$ Natural$) Natural_natural_fun$)
(declare-fun less_eq$a (Natural$) Natural_bool_fun$)
(declare-fun of_bool$a (Bool) Natural$)
(declare-fun rec_bool$ (Nat$ Nat$) Bool_nat_fun$)
(declare-fun rec_unit$ (Nat$) Unit_nat_fun$)
(declare-fun size_bool$ () Bool_nat_fun$)
(declare-fun size_char$ (Char$) Nat$)
(declare-fun size_unit$ () Unit_nat_fun$)
(declare-fun stream_all$ (A_bool_fun$ A_stream$) Bool)
(declare-fun size_nibble$ (Nibble$) Nat$)
(declare-fun size_natural$ (Natural$) Nat$)
(declare-fun nibble_of_nat$ (Nat$) Nibble$)
(assert (forall ((?v0 Nibble_set$) (?v1 Nibble$)) (! (= (fun_app$ (uu$ ?v0) ?v1) (member$ ?v1 ?v0)) :pattern ((fun_app$ (uu$ ?v0) ?v1)))))
(assert (not (= (shd$ (of_seq$ f$)) (fun_app$a f$ zero$))))
(assert (= zero$ zero$))
(assert (forall ((?v0 Nat$)) (=> (and (=> (= ?v0 zero$) false) (=> (not (= ?v0 zero$)) false)) false) ))
(assert (forall ((?v0 Nat$)) (= (= zero$ ?v0) (= ?v0 zero$)) ))
(assert (forall ((?v0 Natural$)) (= (= zero$a ?v0) (= ?v0 zero$a)) ))
(assert (forall ((?v0 Char$)) (! (= (size_char$ ?v0) zero$) :pattern ((size_char$ ?v0)))))
(assert (forall ((?v0 Nat_a_fun$)) (= (snth$ (of_seq$ ?v0)) ?v0) ))
(assert (forall ((?v0 A_stream$)) (= (of_seq$ (snth$ ?v0)) ?v0) ))
(assert (= (fun_app$b size_bool$ true) zero$))
(assert (= (fun_app$b size_bool$ false) zero$))
(assert (forall ((?v0 Char$)) (! (= (size$ ?v0) zero$) :pattern ((size$ ?v0)))))
(assert (forall ((?v0 A_stream$)) (! (= (fun_app$a (snth$ ?v0) zero$) (shd$ ?v0)) :pattern ((snth$ ?v0)))))
(assert (= size_bool$ (rec_bool$ zero$ zero$)))
(assert (= (size_natural$ zero$a) zero$))
(assert (forall ((?v0 Nibble$) (?v1 Nibble$)) (! (= (size$ (char$ ?v0 ?v1)) zero$) :pattern ((char$ ?v0 ?v1)))))
(assert (= (size$a zero$a) zero$))
(assert (= (fun_app$b size$b false) zero$))
(assert (= (fun_app$b size$b true) zero$))
(assert (forall ((?v0 Typerep$) (?v1 Typerep$)) (=> (not (= (size$c ?v0) (size$c ?v1))) (not (= ?v0 ?v1))) ))
(assert (forall ((?v0 Literal$) (?v1 Literal$)) (=> (not (= (size$d ?v0) (size$d ?v1))) (not (= ?v0 ?v1))) ))
(assert (forall ((?v0 Nibble$) (?v1 Nibble$)) (=> (not (= (size$e ?v0) (size$e ?v1))) (not (= ?v0 ?v1))) ))
(assert (forall ((?v0 Char$) (?v1 Char$)) (=> (not (= (size$ ?v0) (size$ ?v1))) (not (= ?v0 ?v1))) ))
(assert (forall ((?v0 Bool) (?v1 Bool)) (=> (not (= (fun_app$b size$b ?v0) (fun_app$b size$b ?v1))) (not (= ?v0 ?v1))) ))
(assert (forall ((?v0 Nibble$) (?v1 Nibble$)) (! (= (size_char$ (char$ ?v0 ?v1)) zero$) :pattern ((char$ ?v0 ?v1)))))
(assert (forall ((?v0 Literal$)) (! (= (size$d ?v0) zero$) :pattern ((size$d ?v0)))))
(assert (forall ((?v0 Nibble$) (?v1 Nibble$) (?v2 Nibble$) (?v3 Nibble$)) (= (= (char$ ?v0 ?v1) (char$ ?v2 ?v3)) (and (= ?v0 ?v2) (= ?v1 ?v3))) ))
(assert (forall ((?v0 Nibble$)) (! (= (size$e ?v0) zero$) :pattern ((size$e ?v0)))))
(assert (forall ((?v0 Char$)) (=> (forall ((?v1 Nibble$) (?v2 Nibble$)) (=> (= ?v0 (char$ ?v1 ?v2)) false) ) false) ))
(assert (= size$b (rec_bool$ zero$ zero$)))
(assert (forall ((?v0 Bool)) (! (= (fun_app$b size$b ?v0) zero$) :pattern ((fun_app$b size$b ?v0)))))
(assert (forall ((?v0 Nat$) (?v1 Nat$)) (! (= (fun_app$b (rec_bool$ ?v0 ?v1) false) ?v1) :pattern ((rec_bool$ ?v0 ?v1)))))
(assert (forall ((?v0 Nat$) (?v1 Nat$)) (! (= (fun_app$b (rec_bool$ ?v0 ?v1) true) ?v0) :pattern ((rec_bool$ ?v0 ?v1)))))
(assert (forall ((?v0 Nat$) (?v1 A_stream$)) (= (shd$ (sdrop$ ?v0 ?v1)) (fun_app$a (snth$ ?v1) ?v0)) ))
(assert (forall ((?v0 Typerep$)) (not (= (size$c ?v0) zero$)) ))
(assert (= size$f (rec_unit$ zero$)))
(assert (forall ((?v0 A_stream$)) (! (= (sdrop$ zero$ ?v0) ?v0) :pattern ((sdrop$ zero$ ?v0)))))
(assert (= size_unit$ (rec_unit$ zero$)))
(assert (= (size$e nibbleA$) zero$))
(assert (= (fun_app$c size$f unity$) zero$))
(assert (forall ((?v0 Nibble_bool_fun$) (?v1 Nibble_bool_fun$)) (=> (forall ((?v2 Nibble$)) (= (fun_app$ ?v0 ?v2) (fun_app$ ?v1 ?v2)) ) (= (collect$ ?v0) (collect$ ?v1))) ))
(assert (forall ((?v0 Nibble_set$)) (= (collect$ (uu$ ?v0)) ?v0) ))
(assert (forall ((?v0 Nibble$) (?v1 Nibble_bool_fun$)) (= (member$ ?v0 (collect$ ?v1)) (fun_app$ ?v1 ?v0)) ))
(assert (= (size$e nibble6$) zero$))
(assert (= (size$e nibbleB$) zero$))
(assert (= (size$e nibbleC$) zero$))
(assert (forall ((?v0 Natural$) (?v1 Natural$)) (= (= (suc$ ?v0) (suc$ ?v1)) (= ?v0 ?v1)) ))
(assert (forall ((?v0 Nat$)) (! (= (fun_app$c (rec_unit$ ?v0) unity$) ?v0) :pattern ((rec_unit$ ?v0)))))
(assert (= (fun_app$c size_unit$ unity$) zero$))
(assert (forall ((?v0 Unit$)) (=> (=> (= ?v0 unity$) false) false) ))
(assert (forall ((?v0 Natural$)) (=> (and (=> (= ?v0 zero$a) false) (forall ((?v1 Natural$)) (=> (= ?v0 (suc$ ?v1)) false) )) false) ))
(assert (forall ((?v0 Natural$)) (not (= zero$a (suc$ ?v0))) ))
(assert (forall ((?v0 Natural$)) (not (= (suc$ ?v0) zero$a)) ))
(assert (= default$ unity$))
(assert (forall ((?v0 Unit_bool_fun$) (?v1 Unit_bool_fun$)) (=> (=> (fun_app$d ?v0 unity$) (fun_app$d ?v1 unity$)) (forall ((?v2 Unit$)) (=> (fun_app$d ?v0 ?v2) (fun_app$d ?v1 ?v2)) )) ))
(assert (forall ((?v0 Bool)) (= (= ?v0 (= unity$ unity$)) ?v0) ))
(assert (= (size_nibble$ nibbleA$) zero$))
(assert (= (size_nibble$ nibbleB$) zero$))
(assert (= (size_nibble$ nibbleC$) zero$))
(assert (forall ((?v0 Nibble$)) (! (= (size_nibble$ ?v0) zero$) :pattern ((size_nibble$ ?v0)))))
(assert (= (size_nibble$ nibble6$) zero$))
(assert (= (size$e nibbleD$) zero$))
(assert (= (size$e nibble7$) zero$))
(assert (= (size$e nibble5$) zero$))
(assert (= (size$e nibble8$) zero$))
(assert (= (size_nibble$ nibble8$) zero$))
(assert (= (size_nibble$ nibble5$) zero$))
(assert (= (size_nibble$ nibble7$) zero$))
(assert (= (size_nibble$ nibbleD$) zero$))
(assert (= (size$e nibble4$) zero$))
(assert (= (size$e nibbleE$) zero$))
(assert (= (size$e nibble2$) zero$))
(assert (= (size$e nibbleF$) zero$))
(assert (= (size$e nibble9$) zero$))
(assert (= (size$e nibble3$) zero$))
(assert (= (size_nibble$ nibble3$) zero$))
(assert (= (size_nibble$ nibble9$) zero$))
(assert (= (size_nibble$ nibbleF$) zero$))
(assert (= (size_nibble$ nibble2$) zero$))
(assert (= (size_nibble$ nibbleE$) zero$))
(assert (= (size_nibble$ nibble4$) zero$))
(assert (forall ((?v0 Nibble$)) (=> (and (=> (= ?v0 nibble0$) false) (and (=> (= ?v0 nibble1$) false) (and (=> (= ?v0 nibble2$) false) (and (=> (= ?v0 nibble3$) false) (and (=> (= ?v0 nibble4$) false) (and (=> (= ?v0 nibble5$) false) (and (=> (= ?v0 nibble6$) false) (and (=> (= ?v0 nibble7$) false) (and (=> (= ?v0 nibble8$) false) (and (=> (= ?v0 nibble9$) false) (and (=> (= ?v0 nibbleA$) false) (and (=> (= ?v0 nibbleB$) false) (and (=> (= ?v0 nibbleC$) false) (and (=> (= ?v0 nibbleD$) false) (and (=> (= ?v0 nibbleE$) false) (=> (= ?v0 nibbleF$) false)))))))))))))))) false) ))
(assert (forall ((?v0 A_bool_fun$) (?v1 A_stream$)) (= (stream_all$ ?v0 ?v1) (forall ((?v2 Nat$)) (fun_app$e ?v0 (fun_app$a (snth$ ?v1) ?v2)) )) ))
(assert (= top$ (insert$ nibble0$ (insert$ nibble1$ (insert$ nibble2$ (insert$ nibble3$ (insert$ nibble4$ (insert$ nibble5$ (insert$ nibble6$ (insert$ nibble7$ (insert$ nibble8$ (insert$ nibble9$ (insert$ nibbleA$ (insert$ nibbleB$ (insert$ nibbleC$ (insert$ nibbleD$ (insert$ nibbleE$ (insert$ nibbleF$ bot$))))))))))))))))))
(assert (= (size$e nibble1$) zero$))
(assert (= (size$e nibble0$) zero$))
(assert (forall ((?v0 Nibble$)) (= (member$ ?v0 top$) true) ))
(assert (forall ((?v0 Natural$)) (= (= one$ ?v0) (= ?v0 one$)) ))
(assert (forall ((?v0 Nat$)) (= (= one$a ?v0) (= ?v0 one$a)) ))
(assert (= (size_nibble$ nibble0$) zero$))
(assert (= (size_nibble$ nibble1$) zero$))
(assert (not (= zero$ one$a)))
(assert (not (= zero$a one$)))
(assert (= (nibble_of_nat$ zero$) nibble0$))
(assert (= (these$ bot$a) bot$b))
(assert (= (these$a bot$b) bot$c))
(assert (= (these$b bot$c) bot$))
(assert (= (nibble_of_nat$ one$a) nibble1$))
(assert (forall ((?v0 Nat_bool_fun$) (?v1 Bool)) (= (fun_app$f ?v0 (of_bool$ ?v1)) (not (or (and ?v1 (not (fun_app$f ?v0 one$a))) (and (not ?v1) (not (fun_app$f ?v0 zero$)))))) ))
(assert (forall ((?v0 Natural_bool_fun$) (?v1 Bool)) (= (fun_app$g ?v0 (of_bool$a ?v1)) (not (or (and ?v1 (not (fun_app$g ?v0 one$))) (and (not ?v1) (not (fun_app$g ?v0 zero$a)))))) ))
(assert (forall ((?v0 Bool)) (! (= (of_bool$ ?v0) (ite ?v0 one$a zero$)) :pattern ((of_bool$ ?v0)))))
(assert (forall ((?v0 Bool)) (! (= (of_bool$a ?v0) (ite ?v0 one$ zero$a)) :pattern ((of_bool$a ?v0)))))
(assert (forall ((?v0 Nat_bool_fun$) (?v1 Bool)) (= (fun_app$f ?v0 (of_bool$ ?v1)) (and (=> ?v1 (fun_app$f ?v0 one$a)) (=> (not ?v1) (fun_app$f ?v0 zero$)))) ))
(assert (forall ((?v0 Natural_bool_fun$) (?v1 Bool)) (= (fun_app$g ?v0 (of_bool$a ?v1)) (and (=> ?v1 (fun_app$g ?v0 one$)) (=> (not ?v1) (fun_app$g ?v0 zero$a)))) ))
(assert (= (of_bool$ false) zero$))
(assert (= (of_bool$a false) zero$a))
(assert (forall ((?v0 Nat$) (?v1 Nat$) (?v2 Nat$)) (= (= (fun_app$h (fun_app$i times$ ?v0) ?v1) (fun_app$h (fun_app$i times$ ?v2) ?v1)) (or (= ?v0 ?v2) (= ?v1 zero$))) ))
(assert (forall ((?v0 Nat$) (?v1 Nat$) (?v2 Nat$)) (= (= (fun_app$h (fun_app$i times$ ?v0) ?v1) (fun_app$h (fun_app$i times$ ?v0) ?v2)) (or (= ?v1 ?v2) (= ?v0 zero$))) ))
(assert (forall ((?v0 Nat$) (?v1 Nat$)) (= (= (fun_app$h (fun_app$i times$ ?v0) ?v1) zero$) (or (= ?v0 zero$) (= ?v1 zero$))) ))
(assert (forall ((?v0 Nat$)) (! (= (fun_app$h (fun_app$i times$ ?v0) zero$) zero$) :pattern ((fun_app$i times$ ?v0)))))
(assert (forall ((?v0 Nat$) (?v1 Nat$)) (= (= (fun_app$h (fun_app$i times$ ?v0) ?v1) one$a) (and (= ?v0 one$a) (= ?v1 one$a))) ))
(assert (forall ((?v0 Nat$) (?v1 Nat$)) (= (= one$a (fun_app$h (fun_app$i times$ ?v0) ?v1)) (and (= ?v0 one$a) (= ?v1 one$a))) ))
(assert (forall ((?v0 Natural$)) (= (fun_app$j (fun_app$k times$a zero$a) ?v0) zero$a) ))
(assert (forall ((?v0 Nat$)) (= (fun_app$h (fun_app$i times$ zero$) ?v0) zero$) ))
(assert (forall ((?v0 Natural$)) (= (fun_app$j (fun_app$k times$a ?v0) zero$a) zero$a) ))
(assert (forall ((?v0 Nat$)) (= (fun_app$h (fun_app$i times$ ?v0) zero$) zero$) ))
(assert (forall ((?v0 Natural$) (?v1 Natural$)) (= (= (fun_app$j (fun_app$k times$a ?v0) ?v1) zero$a) (or (= ?v0 zero$a) (= ?v1 zero$a))) ))
(assert (forall ((?v0 Nat$) (?v1 Nat$)) (= (= (fun_app$h (fun_app$i times$ ?v0) ?v1) zero$) (or (= ?v0 zero$) (= ?v1 zero$))) ))
(assert (forall ((?v0 Natural$) (?v1 Natural$) (?v2 Natural$)) (= (= (fun_app$j (fun_app$k times$a ?v0) ?v1) (fun_app$j (fun_app$k times$a ?v0) ?v2)) (or (= ?v0 zero$a) (= ?v1 ?v2))) ))
(assert (forall ((?v0 Nat$) (?v1 Nat$) (?v2 Nat$)) (= (= (fun_app$h (fun_app$i times$ ?v0) ?v1) (fun_app$h (fun_app$i times$ ?v0) ?v2)) (or (= ?v0 zero$) (= ?v1 ?v2))) ))
(assert (forall ((?v0 Natural$) (?v1 Natural$) (?v2 Natural$)) (= (= (fun_app$j (fun_app$k times$a ?v0) ?v1) (fun_app$j (fun_app$k times$a ?v2) ?v1)) (or (= ?v1 zero$a) (= ?v0 ?v2))) ))
(assert (forall ((?v0 Nat$) (?v1 Nat$) (?v2 Nat$)) (= (= (fun_app$h (fun_app$i times$ ?v0) ?v1) (fun_app$h (fun_app$i times$ ?v2) ?v1)) (or (= ?v1 zero$) (= ?v0 ?v2))) ))
(assert (forall ((?v0 Natural$)) (= (fun_app$j (fun_app$k times$a ?v0) one$) ?v0) ))
(assert (forall ((?v0 Nat$)) (= (fun_app$h (fun_app$i times$ ?v0) one$a) ?v0) ))
(assert (forall ((?v0 Natural$)) (= (fun_app$j (fun_app$k times$a one$) ?v0) ?v0) ))
(assert (forall ((?v0 Nat$)) (= (fun_app$h (fun_app$i times$ one$a) ?v0) ?v0) ))
(assert (forall ((?v0 Natural$) (?v1 Natural$)) (=> (= (fun_app$j (fun_app$k times$a ?v0) ?v1) zero$a) (or (= ?v0 zero$a) (= ?v1 zero$a))) ))
(assert (forall ((?v0 Nat$) (?v1 Nat$)) (=> (= (fun_app$h (fun_app$i times$ ?v0) ?v1) zero$) (or (= ?v0 zero$) (= ?v1 zero$))) ))
(assert (forall ((?v0 Natural$) (?v1 Natural$)) (=> (not (= (fun_app$j (fun_app$k times$a ?v0) ?v1) zero$a)) (and (not (= ?v0 zero$a)) (not (= ?v1 zero$a)))) ))
(assert (forall ((?v0 Nat$) (?v1 Nat$)) (=> (not (= (fun_app$h (fun_app$i times$ ?v0) ?v1) zero$)) (and (not (= ?v0 zero$)) (not (= ?v1 zero$)))) ))
(assert (forall ((?v0 Natural$) (?v1 Natural$)) (=> (and (not (= ?v0 zero$a)) (not (= ?v1 zero$a))) (not (= (fun_app$j (fun_app$k times$a ?v0) ?v1) zero$a))) ))
(assert (forall ((?v0 Nat$) (?v1 Nat$)) (=> (and (not (= ?v0 zero$)) (not (= ?v1 zero$))) (not (= (fun_app$h (fun_app$i times$ ?v0) ?v1) zero$))) ))
(assert (forall ((?v0 Natural$) (?v1 Natural$) (?v2 Natural$)) (=> (not (= ?v0 zero$a)) (= (= (fun_app$j (fun_app$k times$a ?v1) ?v0) (fun_app$j (fun_app$k times$a ?v2) ?v0)) (= ?v1 ?v2))) ))
(assert (forall ((?v0 Nat$) (?v1 Nat$) (?v2 Nat$)) (=> (not (= ?v0 zero$)) (= (= (fun_app$h (fun_app$i times$ ?v1) ?v0) (fun_app$h (fun_app$i times$ ?v2) ?v0)) (= ?v1 ?v2))) ))
(assert (forall ((?v0 Natural$) (?v1 Natural$) (?v2 Natural$)) (=> (not (= ?v0 zero$a)) (= (= (fun_app$j (fun_app$k times$a ?v0) ?v1) (fun_app$j (fun_app$k times$a ?v0) ?v2)) (= ?v1 ?v2))) ))
(assert (forall ((?v0 Nat$) (?v1 Nat$) (?v2 Nat$)) (=> (not (= ?v0 zero$)) (= (= (fun_app$h (fun_app$i times$ ?v0) ?v1) (fun_app$h (fun_app$i times$ ?v0) ?v2)) (= ?v1 ?v2))) ))
(assert (forall ((?v0 Nat$)) (! (= (fun_app$h (fun_app$i times$ zero$) ?v0) zero$) :pattern ((fun_app$h (fun_app$i times$ zero$) ?v0)))))
(assert (forall ((?v0 Nat$) (?v1 Nat$)) (=> (= ?v0 (fun_app$h (fun_app$i times$ ?v0) ?v1)) (or (= ?v1 one$a) (= ?v0 zero$))) ))
(assert (forall ((?v0 Natural$) (?v1 Natural$) (?v2 Natural$)) (= (fun_app$j (fun_app$k times$a (fun_app$j (fun_app$k times$a ?v0) ?v1)) ?v2) (fun_app$j (fun_app$k times$a ?v0) (fun_app$j (fun_app$k times$a ?v1) ?v2))) ))
(assert (forall ((?v0 Nat$) (?v1 Nat$) (?v2 Nat$)) (= (fun_app$h (fun_app$i times$ (fun_app$h (fun_app$i times$ ?v0) ?v1)) ?v2) (fun_app$h (fun_app$i times$ ?v0) (fun_app$h (fun_app$i times$ ?v1) ?v2))) ))
(assert (forall ((?v0 Natural$) (?v1 Natural$) (?v2 Natural$)) (= (fun_app$j (fun_app$k times$a (fun_app$j (fun_app$k times$a ?v0) ?v1)) ?v2) (fun_app$j (fun_app$k times$a ?v0) (fun_app$j (fun_app$k times$a ?v1) ?v2))) ))
(assert (forall ((?v0 Nat$) (?v1 Nat$) (?v2 Nat$)) (= (fun_app$h (fun_app$i times$ (fun_app$h (fun_app$i times$ ?v0) ?v1)) ?v2) (fun_app$h (fun_app$i times$ ?v0) (fun_app$h (fun_app$i times$ ?v1) ?v2))) ))
(assert (forall ((?v0 Natural$) (?v1 Natural$) (?v2 Natural$)) (= (fun_app$j (fun_app$k times$a ?v0) (fun_app$j (fun_app$k times$a ?v1) ?v2)) (fun_app$j (fun_app$k times$a ?v1) (fun_app$j (fun_app$k times$a ?v0) ?v2))) ))
(assert (forall ((?v0 Nat$) (?v1 Nat$) (?v2 Nat$)) (= (fun_app$h (fun_app$i times$ ?v0) (fun_app$h (fun_app$i times$ ?v1) ?v2)) (fun_app$h (fun_app$i times$ ?v1) (fun_app$h (fun_app$i times$ ?v0) ?v2))) ))
(assert (forall ((?v0 Natural$) (?v1 Natural$)) (= (fun_app$j (fun_app$k times$a ?v0) ?v1) (fun_app$j (fun_app$k times$a ?v1) ?v0)) ))
(assert (forall ((?v0 Nat$) (?v1 Nat$)) (= (fun_app$h (fun_app$i times$ ?v0) ?v1) (fun_app$h (fun_app$i times$ ?v1) ?v0)) ))
(assert (= one$a one$a))
(assert (forall ((?v0 Nat$)) (= (fun_app$h (fun_app$i times$ one$a) ?v0) ?v0) ))
(assert (forall ((?v0 Natural$)) (= (fun_app$j (fun_app$k times$a one$) ?v0) ?v0) ))
(assert (forall ((?v0 Nat$)) (= (fun_app$h (fun_app$i times$ one$a) ?v0) ?v0) ))
(assert (forall ((?v0 Nat$)) (= (fun_app$h (fun_app$i times$ ?v0) one$a) ?v0) ))
(assert (forall ((?v0 Natural$)) (= (fun_app$j (fun_app$k times$a ?v0) one$) ?v0) ))
(assert (forall ((?v0 Nat$)) (= (fun_app$h (fun_app$i times$ ?v0) one$a) ?v0) ))
(assert (forall ((?v0 Nat$) (?v1 Nat$) (?v2 Nat$)) (= (= (fun_app$h (fun_app$i times$ ?v0) ?v1) (fun_app$h (fun_app$i times$ ?v0) ?v2)) (or (= ?v0 zero$) (= ?v1 ?v2))) ))
(assert (fun_app$g (monoid$ times$a) one$))
(assert (fun_app$f (monoid$a times$) one$a))
(assert (forall ((?v0 Nat$)) (fun_app$f (less_eq$ zero$) ?v0) ))
(assert (forall ((?v0 Nat$)) (! (= (fun_app$f (less_eq$ ?v0) zero$) (= ?v0 zero$)) :pattern ((less_eq$ ?v0)))))
(assert (forall ((?v0 Nat$) (?v1 Nat$) (?v2 Nat$) (?v3 Nat$)) (=> (and (fun_app$f (less_eq$ ?v0) ?v1) (fun_app$f (less_eq$ ?v2) ?v3)) (fun_app$f (less_eq$ (fun_app$h (fun_app$i times$ ?v0) ?v2)) (fun_app$h (fun_app$i times$ ?v1) ?v3))) ))
(assert (forall ((?v0 Nat$) (?v1 Nat$) (?v2 Nat$)) (=> (fun_app$f (less_eq$ ?v0) ?v1) (fun_app$f (less_eq$ (fun_app$h (fun_app$i times$ ?v2) ?v0)) (fun_app$h (fun_app$i times$ ?v2) ?v1))) ))
(assert (forall ((?v0 Nat$) (?v1 Nat$) (?v2 Nat$)) (=> (fun_app$f (less_eq$ ?v0) ?v1) (fun_app$f (less_eq$ (fun_app$h (fun_app$i times$ ?v0) ?v2)) (fun_app$h (fun_app$i times$ ?v1) ?v2))) ))
(assert (forall ((?v0 Nat$)) (fun_app$f (less_eq$ ?v0) (fun_app$h (fun_app$i times$ ?v0) (fun_app$h (fun_app$i times$ ?v0) ?v0))) ))
(assert (forall ((?v0 Nat$)) (fun_app$f (less_eq$ ?v0) (fun_app$h (fun_app$i times$ ?v0) ?v0)) ))
(assert (forall ((?v0 Unit$)) (! (= (uminus$ ?v0) unity$) :pattern ((uminus$ ?v0)))))
(assert (forall ((?v0 Natural_natural_natural_fun_fun$) (?v1 Natural$) (?v2 Natural$)) (=> (fun_app$g (monoid$ ?v0) ?v1) (= (fun_app$j (fun_app$k ?v0 ?v1) ?v2) ?v2)) ))
(assert (forall ((?v0 Nat_nat_nat_fun_fun$) (?v1 Nat$) (?v2 Nat$)) (=> (fun_app$f (monoid$a ?v0) ?v1) (= (fun_app$h (fun_app$i ?v0 ?v1) ?v2) ?v2)) ))
(assert (forall ((?v0 Natural_natural_natural_fun_fun$) (?v1 Natural$) (?v2 Natural$)) (=> (fun_app$g (monoid$ ?v0) ?v1) (= (fun_app$j (fun_app$k ?v0 ?v2) ?v1) ?v2)) ))
(assert (forall ((?v0 Nat_nat_nat_fun_fun$) (?v1 Nat$) (?v2 Nat$)) (=> (fun_app$f (monoid$a ?v0) ?v1) (= (fun_app$h (fun_app$i ?v0 ?v2) ?v1) ?v2)) ))
(assert (forall ((?v0 Nat$)) (! (= (fun_app$f (less_eq$ zero$) ?v0) true) :pattern ((fun_app$f (less_eq$ zero$) ?v0)))))
(assert (forall ((?v0 Natural$) (?v1 Natural$)) (=> (and (fun_app$g (less_eq$a zero$a) ?v0) (fun_app$g (less_eq$a zero$a) ?v1)) (fun_app$g (less_eq$a zero$a) (fun_app$j (fun_app$k times$a ?v0) ?v1))) ))
(assert (forall ((?v0 Nat$) (?v1 Nat$)) (=> (and (fun_app$f (less_eq$ zero$) ?v0) (fun_app$f (less_eq$ zero$) ?v1)) (fun_app$f (less_eq$ zero$) (fun_app$h (fun_app$i times$ ?v0) ?v1))) ))
(assert (forall ((?v0 Natural$) (?v1 Natural$)) (=> (and (fun_app$g (less_eq$a zero$a) ?v0) (fun_app$g (less_eq$a ?v1) zero$a)) (fun_app$g (less_eq$a (fun_app$j (fun_app$k times$a ?v0) ?v1)) zero$a)) ))
(assert (forall ((?v0 Nat$) (?v1 Nat$)) (=> (and (fun_app$f (less_eq$ zero$) ?v0) (fun_app$f (less_eq$ ?v1) zero$)) (fun_app$f (less_eq$ (fun_app$h (fun_app$i times$ ?v0) ?v1)) zero$)) ))
(assert (forall ((?v0 Natural$) (?v1 Natural$)) (=> (and (fun_app$g (less_eq$a zero$a) ?v0) (fun_app$g (less_eq$a ?v1) zero$a)) (fun_app$g (less_eq$a (fun_app$j (fun_app$k times$a ?v1) ?v0)) zero$a)) ))
(assert (forall ((?v0 Nat$) (?v1 Nat$)) (=> (and (fun_app$f (less_eq$ zero$) ?v0) (fun_app$f (less_eq$ ?v1) zero$)) (fun_app$f (less_eq$ (fun_app$h (fun_app$i times$ ?v1) ?v0)) zero$)) ))
(assert (forall ((?v0 Natural$) (?v1 Natural$)) (=> (and (fun_app$g (less_eq$a ?v0) zero$a) (fun_app$g (less_eq$a zero$a) ?v1)) (fun_app$g (less_eq$a (fun_app$j (fun_app$k times$a ?v0) ?v1)) zero$a)) ))
(assert (forall ((?v0 Nat$) (?v1 Nat$)) (=> (and (fun_app$f (less_eq$ ?v0) zero$) (fun_app$f (less_eq$ zero$) ?v1)) (fun_app$f (less_eq$ (fun_app$h (fun_app$i times$ ?v0) ?v1)) zero$)) ))
(assert (forall ((?v0 Natural$) (?v1 Natural$) (?v2 Natural$)) (=> (and (fun_app$g (less_eq$a ?v0) ?v1) (fun_app$g (less_eq$a zero$a) ?v2)) (fun_app$g (less_eq$a (fun_app$j (fun_app$k times$a ?v2) ?v0)) (fun_app$j (fun_app$k times$a ?v2) ?v1))) ))
(assert (forall ((?v0 Nat$) (?v1 Nat$) (?v2 Nat$)) (=> (and (fun_app$f (less_eq$ ?v0) ?v1) (fun_app$f (less_eq$ zero$) ?v2)) (fun_app$f (less_eq$ (fun_app$h (fun_app$i times$ ?v2) ?v0)) (fun_app$h (fun_app$i times$ ?v2) ?v1))) ))
(assert (forall ((?v0 Natural$) (?v1 Natural$) (?v2 Natural$)) (=> (and (fun_app$g (less_eq$a ?v0) ?v1) (fun_app$g (less_eq$a zero$a) ?v2)) (fun_app$g (less_eq$a (fun_app$j (fun_app$k times$a ?v0) ?v2)) (fun_app$j (fun_app$k times$a ?v1) ?v2))) ))
(assert (forall ((?v0 Nat$) (?v1 Nat$) (?v2 Nat$)) (=> (and (fun_app$f (less_eq$ ?v0) ?v1) (fun_app$f (less_eq$ zero$) ?v2)) (fun_app$f (less_eq$ (fun_app$h (fun_app$i times$ ?v0) ?v2)) (fun_app$h (fun_app$i times$ ?v1) ?v2))) ))
(assert (forall ((?v0 Nat$) (?v1 Nat$) (?v2 Nat$)) (=> (and (fun_app$f (less_eq$ ?v0) ?v1) (fun_app$f (less_eq$ zero$) ?v2)) (fun_app$f (less_eq$ (fun_app$h (fun_app$i times$ ?v2) ?v0)) (fun_app$h (fun_app$i times$ ?v2) ?v1))) ))
(assert (forall ((?v0 Natural$) (?v1 Natural$) (?v2 Natural$) (?v3 Natural$)) (=> (and (fun_app$g (less_eq$a ?v0) ?v1) (and (fun_app$g (less_eq$a ?v2) ?v3) (and (fun_app$g (less_eq$a zero$a) ?v1) (fun_app$g (less_eq$a zero$a) ?v2)))) (fun_app$g (less_eq$a (fun_app$j (fun_app$k times$a ?v0) ?v2)) (fun_app$j (fun_app$k times$a ?v1) ?v3))) ))
(assert (forall ((?v0 Nat$) (?v1 Nat$) (?v2 Nat$) (?v3 Nat$)) (=> (and (fun_app$f (less_eq$ ?v0) ?v1) (and (fun_app$f (less_eq$ ?v2) ?v3) (and (fun_app$f (less_eq$ zero$) ?v1) (fun_app$f (less_eq$ zero$) ?v2)))) (fun_app$f (less_eq$ (fun_app$h (fun_app$i times$ ?v0) ?v2)) (fun_app$h (fun_app$i times$ ?v1) ?v3))) ))
(assert (forall ((?v0 Natural$) (?v1 Natural$) (?v2 Natural$) (?v3 Natural$)) (=> (and (fun_app$g (less_eq$a ?v0) ?v1) (and (fun_app$g (less_eq$a ?v2) ?v3) (and (fun_app$g (less_eq$a zero$a) ?v0) (fun_app$g (less_eq$a zero$a) ?v2)))) (fun_app$g (less_eq$a (fun_app$j (fun_app$k times$a ?v0) ?v2)) (fun_app$j (fun_app$k times$a ?v1) ?v3))) ))
(assert (forall ((?v0 Nat$) (?v1 Nat$) (?v2 Nat$) (?v3 Nat$)) (=> (and (fun_app$f (less_eq$ ?v0) ?v1) (and (fun_app$f (less_eq$ ?v2) ?v3) (and (fun_app$f (less_eq$ zero$) ?v0) (fun_app$f (less_eq$ zero$) ?v2)))) (fun_app$f (less_eq$ (fun_app$h (fun_app$i times$ ?v0) ?v2)) (fun_app$h (fun_app$i times$ ?v1) ?v3))) ))
(assert (forall ((?v0 Natural$) (?v1 Natural$)) (=> (or (and (fun_app$g (less_eq$a zero$a) ?v0) (fun_app$g (less_eq$a ?v1) zero$a)) (and (fun_app$g (less_eq$a ?v0) zero$a) (fun_app$g (less_eq$a zero$a) ?v1))) (fun_app$g (less_eq$a (fun_app$j (fun_app$k times$a ?v0) ?v1)) zero$a)) ))
(assert (forall ((?v0 Nat$) (?v1 Nat$)) (=> (or (and (fun_app$f (less_eq$ zero$) ?v0) (fun_app$f (less_eq$ ?v1) zero$)) (and (fun_app$f (less_eq$ ?v0) zero$) (fun_app$f (less_eq$ zero$) ?v1))) (fun_app$f (less_eq$ (fun_app$h (fun_app$i times$ ?v0) ?v1)) zero$)) ))
(assert (fun_app$f (less_eq$ zero$) one$a))
(assert (not (fun_app$f (less_eq$ one$a) zero$)))
(assert (forall ((?v0 Nat$) (?v1 Nat$)) (=> (and (fun_app$f (less_eq$ ?v0) one$a) (and (fun_app$f (less_eq$ zero$) ?v1) (fun_app$f (less_eq$ ?v1) one$a))) (fun_app$f (less_eq$ (fun_app$h (fun_app$i times$ ?v0) ?v1)) one$a)) ))
(assert (forall ((?v0 Nat$) (?v1 Nat$)) (=> (and (fun_app$f (less_eq$ ?v0) one$a) (fun_app$f (less_eq$ zero$) ?v1)) (fun_app$f (less_eq$ (fun_app$h (fun_app$i times$ ?v1) ?v0)) ?v1)) ))
(assert (forall ((?v0 Nat$)) (fun_app$f (less_eq$ ?v0) ?v0) ))
(assert (forall ((?v0 Nat$) (?v1 Nat$)) (or (fun_app$f (less_eq$ ?v0) ?v1) (fun_app$f (less_eq$ ?v1) ?v0)) ))
(assert (forall ((?v0 Nat$) (?v1 Nat$) (?v2 Nat$)) (=> (and (fun_app$f (less_eq$ ?v0) ?v1) (fun_app$f (less_eq$ ?v1) ?v2)) (fun_app$f (less_eq$ ?v0) ?v2)) ))
(assert (forall ((?v0 Nat$) (?v1 Nat$)) (=> (and (fun_app$f (less_eq$ ?v0) ?v1) (fun_app$f (less_eq$ ?v1) ?v0)) (= ?v0 ?v1)) ))
(assert (forall ((?v0 Nat$) (?v1 Nat$)) (=> (= ?v0 ?v1) (fun_app$f (less_eq$ ?v0) ?v1)) ))
(assert (fun_app$f (less_eq$ zero$) zero$))
(assert (forall ((?v0 Nat$)) (! (= (fun_app$f (less$ ?v0) zero$) false) :pattern ((less$ ?v0)))))
(assert (forall ((?v0 Nat$)) (= (not (fun_app$f (less$ zero$) ?v0)) (= ?v0 zero$)) ))
(assert (forall ((?v0 Nat$)) (= (not (= ?v0 zero$)) (fun_app$f (less$ zero$) ?v0)) ))
(assert (forall ((?v0 Nat$) (?v1 Nat$) (?v2 Nat$)) (= (fun_app$f (less$ (fun_app$h (fun_app$i times$ ?v0) ?v1)) (fun_app$h (fun_app$i times$ ?v0) ?v2)) (and (fun_app$f (less$ zero$) ?v0) (fun_app$f (less$ ?v1) ?v2))) ))
(assert (forall ((?v0 Nat$) (?v1 Nat$)) (= (fun_app$f (less$ zero$) (fun_app$h (fun_app$i times$ ?v0) ?v1)) (and (fun_app$f (less$ zero$) ?v0) (fun_app$f (less$ zero$) ?v1))) ))
(assert (forall ((?v0 Nat$) (?v1 Nat$) (?v2 Nat$)) (= (fun_app$f (less$ (fun_app$h (fun_app$i times$ ?v0) ?v1)) (fun_app$h (fun_app$i times$ ?v2) ?v1)) (and (fun_app$f (less$ zero$) ?v1) (fun_app$f (less$ ?v0) ?v2))) ))
(assert (forall ((?v0 Nat$)) (= (fun_app$f (less$ ?v0) one$a) (= ?v0 zero$)) ))
(assert (forall ((?v0 Nat$) (?v1 Nat$) (?v2 Nat$)) (= (fun_app$f (less_eq$ (fun_app$h (fun_app$i times$ ?v0) ?v1)) (fun_app$h (fun_app$i times$ ?v0) ?v2)) (=> (fun_app$f (less$ zero$) ?v0) (fun_app$f (less_eq$ ?v1) ?v2))) ))
(assert (forall ((?v0 Nat$) (?v1 Nat$) (?v2 Nat$)) (= (fun_app$f (less_eq$ (fun_app$h (fun_app$i times$ ?v0) ?v1)) (fun_app$h (fun_app$i times$ ?v2) ?v1)) (=> (fun_app$f (less$ zero$) ?v1) (fun_app$f (less_eq$ ?v0) ?v2))) ))
(assert (forall ((?v0 Nat$)) (not (fun_app$f (less$ ?v0) zero$)) ))
(assert (forall ((?v0 Nat_bool_fun$) (?v1 Nat$)) (=> (and (fun_app$f ?v0 zero$) (forall ((?v2 Nat$)) (=> (and (fun_app$f (less$ zero$) ?v2) (not (fun_app$f ?v0 ?v2))) (exists ((?v3 Nat$)) (and (fun_app$f (less$ ?v3) ?v2) (not (fun_app$f ?v0 ?v3))) )) )) (fun_app$f ?v0 ?v1)) ))
(assert (forall ((?v0 Nat$)) (=> (fun_app$f (less$ ?v0) zero$) false) ))
(assert (forall ((?v0 Nat$) (?v1 Nat$)) (=> (fun_app$f (less$ ?v0) ?v1) (not (= ?v1 zero$))) ))
(assert (forall ((?v0 Nat$)) (=> (=> (= ?v0 zero$) false) (fun_app$f (less$ zero$) ?v0)) ))
(assert (forall ((?v0 Nat$) (?v1 Nat$) (?v2 Nat$)) (=> (and (fun_app$f (less$ ?v0) ?v1) (fun_app$f (less$ zero$) ?v2)) (fun_app$f (less$ (fun_app$h (fun_app$i times$ ?v2) ?v0)) (fun_app$h (fun_app$i times$ ?v2) ?v1))) ))
(assert (forall ((?v0 Nat$) (?v1 Nat$) (?v2 Nat$)) (=> (and (fun_app$f (less$ ?v0) ?v1) (fun_app$f (less$ zero$) ?v2)) (fun_app$f (less$ (fun_app$h (fun_app$i times$ ?v0) ?v2)) (fun_app$h (fun_app$i times$ ?v1) ?v2))) ))
(assert (forall ((?v0 Nat$) (?v1 Nat$) (?v2 Nat$)) (=> (fun_app$f (less$ zero$) ?v0) (= (fun_app$f (less$ (fun_app$h (fun_app$i times$ ?v0) ?v1)) (fun_app$h (fun_app$i times$ ?v0) ?v2)) (fun_app$f (less$ ?v1) ?v2))) ))
(assert (forall ((?v0 Nat$) (?v1 Nat$) (?v2 Nat$)) (=> (fun_app$f (less$ zero$) ?v0) (= (= (fun_app$h (fun_app$i times$ ?v0) ?v1) (fun_app$h (fun_app$i times$ ?v0) ?v2)) (= ?v1 ?v2))) ))
(assert (fun_app$f (less$ zero$) one$a))
(assert (not (fun_app$f (less$ one$a) zero$)))
(assert (forall ((?v0 Nat$) (?v1 Nat$)) (=> (and (fun_app$f (less$ zero$) ?v0) (fun_app$f (less$ zero$) ?v1)) (fun_app$f (less$ zero$) (fun_app$h (fun_app$i times$ ?v0) ?v1))) ))
(assert (forall ((?v0 Nat$) (?v1 Nat$)) (=> (and (fun_app$f (less$ zero$) ?v0) (fun_app$f (less$ ?v1) zero$)) (fun_app$f (less$ (fun_app$h (fun_app$i times$ ?v0) ?v1)) zero$)) ))
(assert (forall ((?v0 Nat$) (?v1 Nat$)) (=> (and (fun_app$f (less$ zero$) ?v0) (fun_app$f (less$ ?v1) zero$)) (fun_app$f (less$ (fun_app$h (fun_app$i times$ ?v1) ?v0)) zero$)) ))
(assert (forall ((?v0 Nat$) (?v1 Nat$)) (=> (and (fun_app$f (less$ zero$) (fun_app$h (fun_app$i times$ ?v0) ?v1)) (fun_app$f (less$ zero$) ?v0)) (fun_app$f (less$ zero$) ?v1)) ))
(assert (forall ((?v0 Nat$) (?v1 Nat$)) (=> (and (fun_app$f (less$ zero$) (fun_app$h (fun_app$i times$ ?v0) ?v1)) (fun_app$f (less$ zero$) ?v1)) (fun_app$f (less$ zero$) ?v0)) ))
(assert (forall ((?v0 Nat$) (?v1 Nat$)) (=> (and (fun_app$f (less$ ?v0) zero$) (fun_app$f (less$ zero$) ?v1)) (fun_app$f (less$ (fun_app$h (fun_app$i times$ ?v0) ?v1)) zero$)) ))
(check-sat)
(exit)

